%As
as_len = 30;
as = array2d(1..as_len,1..2,[
25,40,
196,87,
2,27,
118,142,
102,176,
208,55,
96,102,
112,208,
100,149,
66,193,
107,230,
89,157,
69,84,
38,160,
185,62,
202,69,
109,131,
137,135,
200,200,
60,36,
219,118,
129,145,
181,79,
144,150,
225,75,
65,11,
209,198,
170,100,
73,70,
17,7,
]);
% Makespan
makespan = 23;
% Rel:
rel_len = 231;
rel = [
{1,2}, %	1
{2,3,1,16}, %	2
{3,4,2,17}, %	3
{4,5,3,18}, %	4
{5,6,4,19}, %	5
{6,7,5,20}, %	6
{7,8,6,21}, %	7
{8,7,22}, %	8
{9,10,24}, %	9
{10,11,9,25}, %	10
{11,12,10,26}, %	11
{12,13,11}, %	12
{13,14,12,27}, %	13
{14,15,13,28}, %	14
{15,14,29}, %	15
{16,17,2,31}, %	16
{17,18,16,3,32}, %	17
{18,19,17,4,33}, %	18
{19,20,18,5,34}, %	19
{20,21,19,6,35}, %	20
{21,22,20,7,36}, %	21
{22,23,21,8,37}, %	22
{23,24,22,38}, %	23
{24,25,23,9,39}, %	24
{25,26,24,10,40}, %	25
{26,25,11,41}, %	26
{27,28,13,43}, %	27
{28,29,27,14,44}, %	28
{29,28,15}, %	29
{30,31,45}, %	30
{31,32,30,16,46}, %	31
{32,33,31,17,47}, %	32
{33,34,32,18,48}, %	33
{34,35,33,19,49}, %	34
{35,36,34,20,50}, %	35
{36,37,35,21,51}, %	36
{37,38,36,22,52}, %	37
{38,39,37,23,53}, %	38
{39,40,38,24}, %	39
{40,41,39,25,54}, %	40
{41,42,40,26,55}, %	41
{42,43,41,56}, %	42
{43,44,42,27,57}, %	43
{44,43,28,58}, %	44
{45,46,30,59}, %	45
{46,47,45,31,60}, %	46
{47,48,46,32,61}, %	47
{48,49,47,33,62}, %	48
{49,50,48,34,63}, %	49
{50,51,49,35,64}, %	50
{51,52,50,36,65}, %	51
{52,53,51,37}, %	52
{53,52,38,66}, %	53
{54,55,40}, %	54
{55,56,54,41,68}, %	55
{56,57,55,42,69}, %	56
{57,58,56,43,70}, %	57
{58,57,44,71}, %	58
{59,60,45,73}, %	59
{60,61,59,46,74}, %	60
{61,62,60,47,75}, %	61
{62,63,61,48,76}, %	62
{63,64,62,49}, %	63
{64,65,63,50}, %	64
{65,64,51,77}, %	65
{66,67,53}, %	66
{67,66,79}, %	67
{68,69,55,81}, %	68
{69,70,68,56,82}, %	69
{70,71,69,57,83}, %	70
{71,72,70,58,84}, %	71
{72,71,85}, %	72
{73,74,59,86}, %	73
{74,75,73,60,87}, %	74
{75,76,74,61,88}, %	75
{76,75,62,89}, %	76
{77,78,65,91}, %	77
{78,77,92}, %	78
{79,80,67,94}, %	79
{80,81,79}, %	80
{81,82,80,68,95}, %	81
{82,83,81,69,96}, %	82
{83,84,82,70,97}, %	83
{84,85,83,71,98}, %	84
{85,84,72,99}, %	85
{86,87,73,100}, %	86
{87,88,86,74}, %	87
{88,89,87,75,101}, %	88
{89,90,88,76,102}, %	89
{90,89,103}, %	90
{91,92,77,104}, %	91
{92,93,91,78,105}, %	92
{93,94,92}, %	93
{94,93,79,106}, %	94
{95,96,81}, %	95
{96,97,95,82,108}, %	96
{97,98,96,83,109}, %	97
{98,99,97,84,110}, %	98
{99,98,85,111}, %	99
{100,86,112}, %	100
{101,102,88,114}, %	101
{102,103,101,89,115}, %	102
{103,102,90}, %	103
{104,105,91,117}, %	104
{105,104,92,118}, %	105
{106,107,94,120}, %	106
{107,106,121}, %	107
{108,109,96,123}, %	108
{109,110,108,97,124}, %	109
{110,111,109,98,125}, %	110
{111,110,99,126}, %	111
{112,113,100,127}, %	112
{113,114,112,128}, %	113
{114,115,113,101,129}, %	114
{115,114,102,130}, %	115
{116,117,132}, %	116
{117,118,116,104,133}, %	117
{118,119,117,105,134}, %	118
{119,120,118,135}, %	119
{120,121,119,106,136}, %	120
{121,122,120,107,137}, %	121
{122,123,121,138}, %	122
{123,124,122,108,139}, %	123
{124,125,123,109,140}, %	124
{125,126,124,110,141}, %	125
{126,125,111,142}, %	126
{127,128,112,143}, %	127
{128,129,127,113,144}, %	128
{129,130,128,114,145}, %	129
{130,131,129,115}, %	130
{131,132,130,146}, %	131
{132,133,131,116,147}, %	132
{133,134,132,117,148}, %	133
{134,135,133,118,149}, %	134
{135,136,134,119,150}, %	135
{136,137,135,120,151}, %	136
{137,138,136,121,152}, %	137
{138,139,137,122,153}, %	138
{139,140,138,123,154}, %	139
{140,141,139,124,155}, %	140
{141,142,140,125}, %	141
{142,141,126,156}, %	142
{143,144,127,157}, %	143
{144,145,143,128,158}, %	144
{145,144,129,159}, %	145
{146,147,131,161}, %	146
{147,148,146,132,162}, %	147
{148,149,147,133,163}, %	148
{149,150,148,134,164}, %	149
{150,151,149,135,165}, %	150
{151,152,150,136,166}, %	151
{152,153,151,137,167}, %	152
{153,154,152,138,168}, %	153
{154,155,153,139,169}, %	154
{155,154,140,170}, %	155
{156,142,172}, %	156
{157,158,143}, %	157
{158,159,157,144,173}, %	158
{159,160,158,145,174}, %	159
{160,161,159,175}, %	160
{161,162,160,146,176}, %	161
{162,163,161,147,177}, %	162
{163,164,162,148,178}, %	163
{164,165,163,149,179}, %	164
{165,166,164,150,180}, %	165
{166,167,165,151,181}, %	166
{167,168,166,152}, %	167
{168,169,167,153,182}, %	168
{169,170,168,154,183}, %	169
{170,171,169,155,184}, %	170
{171,172,170,185}, %	171
{172,171,156,186}, %	172
{173,174,158,188}, %	173
{174,175,173,159,189}, %	174
{175,176,174,160,190}, %	175
{176,177,175,161,191}, %	176
{177,178,176,162,192}, %	177
{178,179,177,163,193}, %	178
{179,180,178,164,194}, %	179
{180,181,179,165,195}, %	180
{181,180,166,196}, %	181
{182,183,168,198}, %	182
{183,184,182,169,199}, %	183
{184,185,183,170,200}, %	184
{185,186,184,171,201}, %	185
{186,185,172,202}, %	186
{187,188,203}, %	187
{188,189,187,173,204}, %	188
{189,190,188,174,205}, %	189
{190,191,189,175}, %	190
{191,192,190,176,206}, %	191
{192,193,191,177,207}, %	192
{193,194,192,178,208}, %	193
{194,195,193,179,209}, %	194
{195,196,194,180,210}, %	195
{196,197,195,181,211}, %	196
{197,198,196,212}, %	197
{198,199,197,182,213}, %	198
{199,200,198,183,214}, %	199
{200,201,199,184,215}, %	200
{201,202,200,185,216}, %	201
{202,201,186,217}, %	202
{203,204,187,218}, %	203
{204,205,203,188,219}, %	204
{205,204,189,220}, %	205
{206,207,191,222}, %	206
{207,208,206,192,223}, %	207
{208,209,207,193,224}, %	208
{209,210,208,194,225}, %	209
{210,211,209,195,226}, %	210
{211,212,210,196,227}, %	211
{212,213,211,197,228}, %	212
{213,214,212,198,229}, %	213
{214,215,213,199,230}, %	214
{215,216,214,200,231}, %	215
{216,217,215,201}, %	216
{217,216,202}, %	217
{218,219,203}, %	218
{219,220,218,204}, %	219
{220,221,219,205}, %	220
{221,222,220}, %	221
{222,223,221,206}, %	222
{223,224,222,207}, %	223
{224,225,223,208}, %	224
{225,226,224,209}, %	225
{226,227,225,210}, %	226
{227,228,226,211}, %	227
{228,229,227,212}, %	228
{229,230,228,213}, %	229
{230,231,229,214}, %	230
{231,230,215}, %	231
];
k=30;
